\* Problem: steiner *\

Minimize
 obj: + 3.73115372657776 x1i19 + 5.07067441940308 x1i20
 + 6.08007431030273 x1i21 + 2.83240222930908 x1i22
 + 6.60795402526855 x1i23 + 12.6910982131958 x1i24
 + 5.65398502349854 x1i25 + 8.50461196899414 x1i26
 + 14.2119855880737 x1i27 + 0.330427438020706 x1i28
 + 2.07465100288391 x1i29 + 2.82380819320679 x1i30
 + 3.02248167991638 x1i31 + 6.6841607093811 x1i32
 + 8.94447612762451 x1i33 + 13.6073303222656 x1i34
 + 6.32470846176147 x2i19 + 8.03427028656006 x2i20
 + 9.05239391326904 x2i21 + 5.39156818389893 x2i22
 + 9.45279979705811 x2i23 + 15.503625869751 x2i24
 + 8.05925178527832 x2i25 + 10.0205554962158 x2i26
 + 16.2779560089111 x2i27 + 2.93251442909241 x2i28
 + 1.53540682792664 x2i29 + 2.23906183242798 x2i30
 + 0.0230107791721821 x2i31 + 5.98590326309204 x2i32
 + 8.06302452087402 x2i33 + 16.4979114532471 x2i34
 + 6.51485586166382 x3i19 + 5.08462429046631 x3i20
 + 3.59932160377502 x3i21 + 6.32007694244385 x3i22
 + 2.59053039550781 x3i23 + 7.76613998413086 x3i24
 + 0.00300804059952497 x3i25 + 11.9157180786133 x3i26
 + 15.8112144470215 x3i27 + 5.94501399993896 x3i28
 + 7.6682071685791 x3i29 + 8.48065948486328 x3i30 + 8.079345703125 x3i31
 + 12.1803436279297 x3i32 + 14.4221935272217 x3i33
 + 9.0036096572876 x3i34 + 9.53208827972412 x4i19
 + 10.741756439209 x4i20 + 11.1759080886841 x4i21
 + 8.60738945007324 x4i22 + 11.1261119842529 x4i23
 + 16.8215103149414 x4i24 + 9.05258083343506 x4i25
 + 13.6183195114136 x4i26 + 19.7981796264648 x4i27
 + 5.93092823028564 x4i28 + 5.0976357460022 x4i29
 + 5.83438205718994 x4i30 + 3.5890212059021 x4i31
 + 9.21130561828613 x4i32 + 11.0464420318604 x4i33
 + 18.0318126678467 x4i34 + 0.941638708114624 x5i19
 + 3.13962364196777 x5i20 + 5.00020217895508 x5i21
 + 0.00804080069065094 x5i22 + 6.10095739364624 x5i23
 + 11.9041271209717 x5i24 + 6.3223934173584 x5i25
 + 6.00469350814819 x5i26 + 11.40110206604 x5i27
 + 2.67797780036926 x5i28 + 3.95615530014038 x5i29
 + 3.99341583251953 x5i30 + 5.40786504745483 x5i31
 + 6.37437009811401 x5i32 + 8.48493003845215 x5i33
 + 12.5370578765869 x5i34 + 9.59143352508545 x6i19
 + 8.92385387420654 x6i20 + 7.80403995513916 x6i21
 + 9.05411624908447 x6i22 + 6.80998611450195 x6i23
 + 10.9245843887329 x6i24 + 4.24173831939697 x6i25
 + 15.0463447570801 x6i26 + 19.6974010467529 x6i27
 + 7.39929866790771 x6i28 + 8.47236251831055 x6i29
 + 9.48479747772217 x6i30 + 8.06916427612305 x6i31
 + 13.5804595947266 x6i32 + 15.8118343353271 x6i33
 + 12.3708276748657 x6i34 + 4.86421537399292 x7i19
 + 7.04563045501709 x7i20 + 8.54244709014893 x7i21
 + 4.00775098800659 x7i22 + 9.28128051757812 x7i23
 + 15.3440380096436 x7i24 + 8.48241233825684 x7i25
 + 7.84222364425659 x7i26 + 14.2117404937744 x7i27
 + 2.5479748249054 x7i28 + 1.02740597724915 x7i29
 + 0.00658431509509683 x7i30 + 2.25059604644775 x7i31
 + 4.10324621200562 x7i32 + 6.32500171661377 x7i33
 + 16.1618900299072 x7i34 + 2.57491564750671 x8i19
 + 0.0286065340042114 x8i20 + 2.23903751373291 x8i21
 + 3.15424799919128 x8i22 + 3.67734837532043 x8i23
 + 8.92495536804199 x8i24 + 5.09818029403687 x8i25
 + 7.12378120422363 x8i26 + 10.7700700759888 x8i27
 + 5.13027906417847 x8i28 + 6.82446146011353 x8i29
 + 7.06455612182617 x8i30 + 8.08517265319824 x8i31
 + 9.40485286712646 x8i32 + 11.4011945724487 x8i33
 + 9.44138622283936 x8i34 + 12.8650140762329 x9i19
 + 10.3147573471069 x9i20 + 8.54556465148926 x9i21
 + 13.4085178375244 x9i22 + 8.02556228637695 x9i23
 + 2.44637370109558 x9i24 + 10.002667427063 x9i25
 + 16.0740165710449 x9i26 + 15.8121290206909 x9i27
 + 14.7323341369629 x9i28 + 16.5918769836426 x9i29
 + 17.081859588623 x9i30 + 17.4850044250488 x9i31
 + 19.6939239501953 x9i32 + 21.6326293945312 x9i33
 + 0.996428489685059 x9i34 + 5.59013319015503 x10i19
 + 7.28171110153198 x10i20 + 9.4905424118042 x10i21
 + 6.08360528945923 x10i22 + 10.9563751220703 x10i23
 + 15.5500822067261 x10i24 + 12.0399885177612 x10i25
 + 0.212699264287949 x10i26 + 6.70704460144043 x10i27
 + 8.27704524993896 x10i28 + 8.51161766052246 x10i29
 + 7.80600023269653 x10i30 + 10.0174369812012 x10i31
 + 6.30487060546875 x10i32 + 6.99854946136475 x10i33
 + 15.6291084289551 x10i34 + 10.3893518447876 x11i19
 + 12.7966718673706 x11i20 + 15.0019359588623 x11i21
 + 10.3012666702271 x11i22 + 16.2925796508789 x11i23
 + 21.6487140655518 x11i24 + 16.55055809021 x11i25
 + 6.92000007629395 x11i26 + 11.9985542297363 x11i27
 + 11.0713338851929 x11i28 + 10.0810718536377 x11i29
 + 9.05606842041016 x11i30 + 11.0049476623535 x11i31
 + 5.01421594619751 x11i32 + 3.16091442108154 x11i33
 + 21.9399528503418 x11i34 + 10.5648908615112 x12i19
 + 10.7890596389771 x12i20 + 12.3751344680786 x12i21
 + 11.3986883163452 x12i22 + 13.8089370727539 x12i23
 + 16.1081657409668 x12i24 + 15.8109130859375 x12i25
 + 6.59954643249512 x12i26 + 0.00147634407039732 x12i27
 + 14.021861076355 x12i28 + 14.7449922561646 x12i29
 + 14.2075452804565 x12i30 + 16.2987213134766 x12i31
 + 12.9819202423096 x12i32 + 13.3400363922119 x12i33
 + 15.5330286026001 x12i34 + 4.64592170715332 x13i19
 + 2.23999309539795 x13i20 + 0.00623133452609181 x13i21
 + 4.992516040802 x13i22 + 1.50861048698425 x13i23
 + 6.90739631652832 x13i24 + 3.60587573051453 x13i25
 + 9.32401466369629 x13i26 + 12.3692560195923 x13i27
 + 6.22630882263184 x13i28 + 8.07297897338867 x13i29
 + 8.53785514831543 x13i30 + 9.07718467712402 x13i31
 + 11.3729343414307 x13i32 + 13.4531841278076 x13i33
 + 7.6223201751709 x13i34 + 6.85990715026855 x14i19
 + 9.41602325439453 x14i20 + 11.402063369751 x14i21
 + 6.41051483154297 x14i22 + 12.4661951065063 x14i23
 + 18.3000564575195 x14i24 + 12.2038869857788 x14i25
 + 6.46231079101562 x14i26 + 12.9987802505493 x14i27
 + 6.38495969772339 x14i28 + 5.14830446243286 x14i29
 + 4.12466239929199 x14i30 + 6.00496625900269 x14i31
 + 0.0291677471250296 x14i32 + 2.23627281188965 x14i33
 + 18.8753681182861 x14i34 + 13.1288747787476 x15i19
 + 10.6409616470337 x15i20 + 8.484206199646 x15i21
 + 13.4464311599731 x15i22 + 7.40571308135986 x15i23
 + 2.1413893699646 x15i24 + 8.54698944091797 x15i25
 + 17.3037891387939 x15i26 + 18.2488193511963 x15i27
 + 14.1286211013794 x15i28 + 15.9661779403687 x15i29
 + 16.6378040313721 x15i30 + 16.5712375640869 x15i31
 + 19.8208923339844 x15i32 + 21.9313049316406 x15i33
 + 3.15564227104187 x15i34 + 12.0084161758423 x16i19
 + 9.45199108123779 x16i20 + 7.61705493927002 x16i21
 + 12.5221347808838 x16i22 + 7.0455493927002 x16i23
 + 1.55485129356384 x16i24 + 9.00266742706299 x16i25
 + 15.4186592102051 x16i26 + 15.5248365402222 x16i27
 + 13.7793979644775 x16i28 + 15.641019821167 x16i29
 + 16.1493988037109 x16i30 + 16.5130386352539 x16i31
 + 18.8388347625732 x16i32 + 20.8080177307129 x16i33
 + 0.00895946193486452 x16i34 + 8.83764266967773 x17i19
 + 11.3861646652222 x17i20 + 13.4543790817261 x17i21
 + 8.49227714538574 x17i22 + 14.5826263427734 x17i23
 + 20.3183364868164 x17i24 + 14.4195690155029 x17i25
 + 7.18139696121216 x17i26 + 13.3403234481812 x17i27
 + 8.62093639373779 x17i28 + 7.34202480316162 x17i29
 + 6.3265962600708 x17i30 + 8.06438827514648 x17i31
 + 2.26019144058228 x17i32 + 0.00173589563928545 x17i33
 + 20.8163280487061 x17i34 + 11.962420463562 x18i19
 + 12.1027498245239 x18i20 + 13.6073989868164 x18i21
 + 12.8030805587769 x18i22 + 15.0154943466187 x18i23
 + 16.9645252227783 x18i24 + 17.0876426696777 x18i25
 + 7.96354007720947 x18i26 + 1.41502511501312 x18i27
 + 15.4319076538086 x18i28 + 16.1582279205322 x18i29
 + 15.6154117584229 x18i30 + 17.7116661071777 x18i31
 + 14.3006134033203 x18i32 + 14.5585632324219 x18i33
 + 16.2875461578369 x18i34 + 2.55752062797546 x19i20
 + 4.64724349975586 x19i21 + 0.935621023178101 x19i22
 + 5.90345668792725 x19i23 + 11.4807224273682 x19i24
 + 6.51301622390747 x19i25 + 5.48570156097412 x19i26
 + 10.5642919540405 x19i27 + 3.60191416740417 x19i28
 + 4.88349580764771 x19i29 + 4.85765075683594 x19i30
 + 6.34736680984497 x19i31 + 6.8307671546936 x19i32
 + 8.83712196350098 x19i33 + 12.0158452987671 x19i34
 + 2.24289298057556 x20i21 + 3.131596326828 x20i22
 + 3.67676568031311 x20i23 + 8.93919372558594 x20i24
 + 5.08377122879028 x20i25 + 7.12595558166504 x20i26
 + 10.78879737854 x20i27 + 5.10224199295044 x20i28
 + 6.79740953445435 x20i29 + 7.03912115097046 x20i30
 + 8.05718326568604 x20i31 + 9.38689804077148 x20i32
 + 11.3856086730957 x20i33 + 9.45938587188721 x20i34
 + 4.99272155761719 x21i22 + 1.50380194187164 x21i23
 + 6.90749645233154 x21i24 + 3.5996458530426 x21i25
 + 9.32779693603516 x21i26 + 12.3750734329224 x21i27
 + 6.22389554977417 x21i28 + 8.07076930999756 x21i29
 + 8.53630065917969 x21i30 + 9.07418823242188 x21i31
 + 11.3732461929321 x21i32 + 13.4539394378662 x21i33
 + 7.62359714508057 x21i34 + 6.09415102005005 x22i23
 + 11.8965635299683 x22i24 + 6.31791734695435 x22i25
 + 6.00527429580688 x22i26 + 11.3980379104614 x22i27
 + 2.68267631530762 x22i28 + 3.96310210227966 x22i29
 + 4.00116729736328 x22i30 + 5.41427135467529 x22i31
 + 6.38175773620605 x22i32 + 8.49192428588867 x22i33
 + 12.5292301177979 x22i34 + 6.08337497711182 x23i24
 + 2.59190726280212 x23i25 + 10.7981224060059 x23i26
 + 13.8089275360107 x23i27 + 6.81264972686768 x23i28
 + 8.67348384857178 x23i29 + 9.27554702758789 x23i30
 + 9.47317600250244 x23i31 + 12.437894821167 x23i32
 + 14.5823078155518 x23i33 + 7.05081796646118 x23i34
 + 7.76894760131836 x24i25 + 15.3559808731079 x24i26
 + 16.1087036132812 x24i27 + 12.894889831543 x24i28
 + 14.7565288543701 x24i29 + 15.338173866272 x24i30
 + 15.5234184265137 x24i31 + 18.2711353302002 x24i32
 + 20.3178195953369 x24i33 + 1.5532238483429 x24i34
 + 11.9141492843628 x25i26 + 15.8107395172119 x25i27
 + 5.94217157363892 x25i28 + 7.66527700424194 x25i29
 + 8.47779178619385 x25i30 + 8.07633972167969 x25i31
 + 12.1776762008667 x25i32 + 14.4195585250854 x25i33
 + 9.0062780380249 x25i34 + 6.59841251373291 x26i27
 + 8.24259757995605 x26i28 + 8.52390575408936 x26i29
 + 7.83784055709839 x26i30 + 10.0383062362671 x26i31
 + 6.44208526611328 x26i32 + 7.17996215820312 x26i33
 + 15.4272794723511 x26i34 + 14.0211524963379 x27i28
 + 14.7441349029541 x27i29 + 14.2066164016724 x27i30
 + 16.2978572845459 x27i31 + 12.9807024002075 x27i32
 + 13.3386945724487 x27i33 + 15.5336904525757 x27i34
 + 1.86351239681244 x28i29 + 2.54306077957153 x28i30
 + 2.95539569854736 x28i31 + 6.36074542999268 x28i32
 + 8.62112808227539 x28i33 + 13.7853946685791 x28i34
 + 1.02634739875793 x29i30 + 1.55582082271576 x29i31
 + 5.12874889373779 x29i32 + 7.34250593185425 x29i33
 + 15.6470537185669 x29i34 + 2.25363636016846 x30i31
 + 4.10476970672607 x30i32 + 6.32704067230225 x30i33
 + 16.1557941436768 x30i34 + 5.99096488952637 x31i32
 + 8.06515979766846 x31i33 + 16.5185222625732 x31i34
 + 2.26038384437561 x32i33 + 18.8462390899658 x32i34
 + 20.8156929016113 x33i34

Subject To
 p1: + x1i34 + x1i33 + x1i32 + x1i31 + x1i30 + x1i29 + x1i28 + x1i27
 + x1i26 + x1i25 + x1i24 + x1i23 + x1i22 + x1i21 + x1i20 + x1i19 = 1
 p2: + x2i34 + x2i33 + x2i32 + x2i31 + x2i30 + x2i29 + x2i28 + x2i27
 + x2i26 + x2i25 + x2i24 + x2i23 + x2i22 + x2i21 + x2i20 + x2i19 = 1
 p3: + x3i34 + x3i33 + x3i32 + x3i31 + x3i30 + x3i29 + x3i28 + x3i27
 + x3i26 + x3i25 + x3i24 + x3i23 + x3i22 + x3i21 + x3i20 + x3i19 = 1
 p4: + x4i34 + x4i33 + x4i32 + x4i31 + x4i30 + x4i29 + x4i28 + x4i27
 + x4i26 + x4i25 + x4i24 + x4i23 + x4i22 + x4i21 + x4i20 + x4i19 = 1
 p5: + x5i34 + x5i33 + x5i32 + x5i31 + x5i30 + x5i29 + x5i28 + x5i27
 + x5i26 + x5i25 + x5i24 + x5i23 + x5i22 + x5i21 + x5i20 + x5i19 = 1
 p6: + x6i34 + x6i33 + x6i32 + x6i31 + x6i30 + x6i29 + x6i28 + x6i27
 + x6i26 + x6i25 + x6i24 + x6i23 + x6i22 + x6i21 + x6i20 + x6i19 = 1
 p7: + x7i34 + x7i33 + x7i32 + x7i31 + x7i30 + x7i29 + x7i28 + x7i27
 + x7i26 + x7i25 + x7i24 + x7i23 + x7i22 + x7i21 + x7i20 + x7i19 = 1
 p8: + x8i34 + x8i33 + x8i32 + x8i31 + x8i30 + x8i29 + x8i28 + x8i27
 + x8i26 + x8i25 + x8i24 + x8i23 + x8i22 + x8i21 + x8i20 + x8i19 = 1
 p9: + x9i34 + x9i33 + x9i32 + x9i31 + x9i30 + x9i29 + x9i28 + x9i27
 + x9i26 + x9i25 + x9i24 + x9i23 + x9i22 + x9i21 + x9i20 + x9i19 = 1
 p10: + x10i34 + x10i33 + x10i32 + x10i31 + x10i30 + x10i29 + x10i28
 + x10i27 + x10i26 + x10i25 + x10i24 + x10i23 + x10i22 + x10i21 + x10i20
 + x10i19 = 1
 p11: + x11i34 + x11i33 + x11i32 + x11i31 + x11i30 + x11i29 + x11i28
 + x11i27 + x11i26 + x11i25 + x11i24 + x11i23 + x11i22 + x11i21 + x11i20
 + x11i19 = 1
 p12: + x12i34 + x12i33 + x12i32 + x12i31 + x12i30 + x12i29 + x12i28
 + x12i27 + x12i26 + x12i25 + x12i24 + x12i23 + x12i22 + x12i21 + x12i20
 + x12i19 = 1
 p13: + x13i34 + x13i33 + x13i32 + x13i31 + x13i30 + x13i29 + x13i28
 + x13i27 + x13i26 + x13i25 + x13i24 + x13i23 + x13i22 + x13i21 + x13i20
 + x13i19 = 1
 p14: + x14i34 + x14i33 + x14i32 + x14i31 + x14i30 + x14i29 + x14i28
 + x14i27 + x14i26 + x14i25 + x14i24 + x14i23 + x14i22 + x14i21 + x14i20
 + x14i19 = 1
 p15: + x15i34 + x15i33 + x15i32 + x15i31 + x15i30 + x15i29 + x15i28
 + x15i27 + x15i26 + x15i25 + x15i24 + x15i23 + x15i22 + x15i21 + x15i20
 + x15i19 = 1
 p16: + x16i34 + x16i33 + x16i32 + x16i31 + x16i30 + x16i29 + x16i28
 + x16i27 + x16i26 + x16i25 + x16i24 + x16i23 + x16i22 + x16i21 + x16i20
 + x16i19 = 1
 p17: + x17i34 + x17i33 + x17i32 + x17i31 + x17i30 + x17i29 + x17i28
 + x17i27 + x17i26 + x17i25 + x17i24 + x17i23 + x17i22 + x17i21 + x17i20
 + x17i19 = 1
 p18: + x18i34 + x18i33 + x18i32 + x18i31 + x18i30 + x18i29 + x18i28
 + x18i27 + x18i26 + x18i25 + x18i24 + x18i23 + x18i22 + x18i21 + x18i20
 + x18i19 = 1
 q19: + x19i20 = 1
 q20: + x20i21 + x19i21 = 1
 q21: + x21i22 + x20i22 + x19i22 = 1
 q22: + x22i23 + x21i23 + x20i23 + x19i23 = 1
 q23: + x23i24 + x22i24 + x21i24 + x20i24 + x19i24 = 1
 q24: + x24i25 + x23i25 + x22i25 + x21i25 + x20i25 + x19i25 = 1
 q25: + x25i26 + x24i26 + x23i26 + x22i26 + x21i26 + x20i26 + x19i26 = 1
 q26: + x26i27 + x25i27 + x24i27 + x23i27 + x22i27 + x21i27 + x20i27
 + x19i27 = 1
 q27: + x27i28 + x26i28 + x25i28 + x24i28 + x23i28 + x22i28 + x21i28
 + x20i28 + x19i28 = 1
 q28: + x28i29 + x27i29 + x26i29 + x25i29 + x24i29 + x23i29 + x22i29
 + x21i29 + x20i29 + x19i29 = 1
 q29: + x29i30 + x28i30 + x27i30 + x26i30 + x25i30 + x24i30 + x23i30
 + x22i30 + x21i30 + x20i30 + x19i30 = 1
 q30: + x30i31 + x29i31 + x28i31 + x27i31 + x26i31 + x25i31 + x24i31
 + x23i31 + x22i31 + x21i31 + x20i31 + x19i31 = 1
 q31: + x31i32 + x30i32 + x29i32 + x28i32 + x27i32 + x26i32 + x25i32
 + x24i32 + x23i32 + x22i32 + x21i32 + x20i32 + x19i32 = 1
 q32: + x32i33 + x31i33 + x30i33 + x29i33 + x28i33 + x27i33 + x26i33
 + x25i33 + x24i33 + x23i33 + x22i33 + x21i33 + x20i33 + x19i33 = 1
 q33: + x33i34 + x32i34 + x31i34 + x30i34 + x29i34 + x28i34 + x27i34
 + x26i34 + x25i34 + x24i34 + x23i34 + x22i34 + x21i34 + x20i34 + x19i34
 = 1
 k34: + x19i34 + x19i33 + x19i32 + x19i31 + x19i30 + x19i29 + x19i28
 + x19i27 + x19i26 + x19i25 + x19i24 + x19i23 + x19i22 + x19i21 + x19i20
 + x18i19 + x17i19 + x16i19 + x15i19 + x14i19 + x13i19 + x12i19 + x11i19
 + x10i19 + x9i19 + x8i19 + x7i19 + x6i19 + x5i19 + x4i19 + x3i19
 + x2i19 + x1i19 = 3
 k35: + x20i34 + x20i33 + x20i32 + x20i31 + x20i30 + x20i29 + x20i28
 + x20i27 + x20i26 + x20i25 + x20i24 + x20i23 + x20i22 + x20i21 + x19i20
 + x18i20 + x17i20 + x16i20 + x15i20 + x14i20 + x13i20 + x12i20 + x11i20
 + x10i20 + x9i20 + x8i20 + x7i20 + x6i20 + x5i20 + x4i20 + x3i20
 + x2i20 + x1i20 = 3
 k36: + x21i34 + x21i33 + x21i32 + x21i31 + x21i30 + x21i29 + x21i28
 + x21i27 + x21i26 + x21i25 + x21i24 + x21i23 + x21i22 + x20i21 + x19i21
 + x18i21 + x17i21 + x16i21 + x15i21 + x14i21 + x13i21 + x12i21 + x11i21
 + x10i21 + x9i21 + x8i21 + x7i21 + x6i21 + x5i21 + x4i21 + x3i21
 + x2i21 + x1i21 = 3
 k37: + x22i34 + x22i33 + x22i32 + x22i31 + x22i30 + x22i29 + x22i28
 + x22i27 + x22i26 + x22i25 + x22i24 + x22i23 + x21i22 + x20i22 + x19i22
 + x18i22 + x17i22 + x16i22 + x15i22 + x14i22 + x13i22 + x12i22 + x11i22
 + x10i22 + x9i22 + x8i22 + x7i22 + x6i22 + x5i22 + x4i22 + x3i22
 + x2i22 + x1i22 = 3
 k38: + x23i34 + x23i33 + x23i32 + x23i31 + x23i30 + x23i29 + x23i28
 + x23i27 + x23i26 + x23i25 + x23i24 + x22i23 + x21i23 + x20i23 + x19i23
 + x18i23 + x17i23 + x16i23 + x15i23 + x14i23 + x13i23 + x12i23 + x11i23
 + x10i23 + x9i23 + x8i23 + x7i23 + x6i23 + x5i23 + x4i23 + x3i23
 + x2i23 + x1i23 = 3
 k39: + x24i34 + x24i33 + x24i32 + x24i31 + x24i30 + x24i29 + x24i28
 + x24i27 + x24i26 + x24i25 + x23i24 + x22i24 + x21i24 + x20i24 + x19i24
 + x18i24 + x17i24 + x16i24 + x15i24 + x14i24 + x13i24 + x12i24 + x11i24
 + x10i24 + x9i24 + x8i24 + x7i24 + x6i24 + x5i24 + x4i24 + x3i24
 + x2i24 + x1i24 = 3
 k40: + x25i34 + x25i33 + x25i32 + x25i31 + x25i30 + x25i29 + x25i28
 + x25i27 + x25i26 + x24i25 + x23i25 + x22i25 + x21i25 + x20i25 + x19i25
 + x18i25 + x17i25 + x16i25 + x15i25 + x14i25 + x13i25 + x12i25 + x11i25
 + x10i25 + x9i25 + x8i25 + x7i25 + x6i25 + x5i25 + x4i25 + x3i25
 + x2i25 + x1i25 = 3
 k41: + x26i34 + x26i33 + x26i32 + x26i31 + x26i30 + x26i29 + x26i28
 + x26i27 + x25i26 + x24i26 + x23i26 + x22i26 + x21i26 + x20i26 + x19i26
 + x18i26 + x17i26 + x16i26 + x15i26 + x14i26 + x13i26 + x12i26 + x11i26
 + x10i26 + x9i26 + x8i26 + x7i26 + x6i26 + x5i26 + x4i26 + x3i26
 + x2i26 + x1i26 = 3
 k42: + x27i34 + x27i33 + x27i32 + x27i31 + x27i30 + x27i29 + x27i28
 + x26i27 + x25i27 + x24i27 + x23i27 + x22i27 + x21i27 + x20i27 + x19i27
 + x18i27 + x17i27 + x16i27 + x15i27 + x14i27 + x13i27 + x12i27 + x11i27
 + x10i27 + x9i27 + x8i27 + x7i27 + x6i27 + x5i27 + x4i27 + x3i27
 + x2i27 + x1i27 = 3
 k43: + x28i34 + x28i33 + x28i32 + x28i31 + x28i30 + x28i29 + x27i28
 + x26i28 + x25i28 + x24i28 + x23i28 + x22i28 + x21i28 + x20i28 + x19i28
 + x18i28 + x17i28 + x16i28 + x15i28 + x14i28 + x13i28 + x12i28 + x11i28
 + x10i28 + x9i28 + x8i28 + x7i28 + x6i28 + x5i28 + x4i28 + x3i28
 + x2i28 + x1i28 = 3
 k44: + x29i34 + x29i33 + x29i32 + x29i31 + x29i30 + x28i29 + x27i29
 + x26i29 + x25i29 + x24i29 + x23i29 + x22i29 + x21i29 + x20i29 + x19i29
 + x18i29 + x17i29 + x16i29 + x15i29 + x14i29 + x13i29 + x12i29 + x11i29
 + x10i29 + x9i29 + x8i29 + x7i29 + x6i29 + x5i29 + x4i29 + x3i29
 + x2i29 + x1i29 = 3
 k45: + x30i34 + x30i33 + x30i32 + x30i31 + x29i30 + x28i30 + x27i30
 + x26i30 + x25i30 + x24i30 + x23i30 + x22i30 + x21i30 + x20i30 + x19i30
 + x18i30 + x17i30 + x16i30 + x15i30 + x14i30 + x13i30 + x12i30 + x11i30
 + x10i30 + x9i30 + x8i30 + x7i30 + x6i30 + x5i30 + x4i30 + x3i30
 + x2i30 + x1i30 = 3
 k46: + x31i34 + x31i33 + x31i32 + x30i31 + x29i31 + x28i31 + x27i31
 + x26i31 + x25i31 + x24i31 + x23i31 + x22i31 + x21i31 + x20i31 + x19i31
 + x18i31 + x17i31 + x16i31 + x15i31 + x14i31 + x13i31 + x12i31 + x11i31
 + x10i31 + x9i31 + x8i31 + x7i31 + x6i31 + x5i31 + x4i31 + x3i31
 + x2i31 + x1i31 = 3
 k47: + x32i34 + x32i33 + x31i32 + x30i32 + x29i32 + x28i32 + x27i32
 + x26i32 + x25i32 + x24i32 + x23i32 + x22i32 + x21i32 + x20i32 + x19i32
 + x18i32 + x17i32 + x16i32 + x15i32 + x14i32 + x13i32 + x12i32 + x11i32
 + x10i32 + x9i32 + x8i32 + x7i32 + x6i32 + x5i32 + x4i32 + x3i32
 + x2i32 + x1i32 = 3
 k48: + x33i34 + x32i33 + x31i33 + x30i33 + x29i33 + x28i33 + x27i33
 + x26i33 + x25i33 + x24i33 + x23i33 + x22i33 + x21i33 + x20i33 + x19i33
 + x18i33 + x17i33 + x16i33 + x15i33 + x14i33 + x13i33 + x12i33 + x11i33
 + x10i33 + x9i33 + x8i33 + x7i33 + x6i33 + x5i33 + x4i33 + x3i33
 + x2i33 + x1i33 = 3
 k49: + x33i34 + x32i34 + x31i34 + x30i34 + x29i34 + x28i34 + x27i34
 + x26i34 + x25i34 + x24i34 + x23i34 + x22i34 + x21i34 + x20i34 + x19i34
 + x18i34 + x17i34 + x16i34 + x15i34 + x14i34 + x13i34 + x12i34 + x11i34
 + x10i34 + x9i34 + x8i34 + x7i34 + x6i34 + x5i34 + x4i34 + x3i34
 + x2i34 + x1i34 = 3

Bounds
 0 <= x1i19 <= 1
 0 <= x1i20 <= 1
 0 <= x1i21 <= 1
 0 <= x1i22 <= 1
 0 <= x1i23 <= 1
 0 <= x1i24 <= 1
 0 <= x1i25 <= 1
 0 <= x1i26 <= 1
 0 <= x1i27 <= 1
 0 <= x1i28 <= 1
 0 <= x1i29 <= 1
 0 <= x1i30 <= 1
 0 <= x1i31 <= 1
 0 <= x1i32 <= 1
 0 <= x1i33 <= 1
 0 <= x1i34 <= 1
 0 <= x2i19 <= 1
 0 <= x2i20 <= 1
 0 <= x2i21 <= 1
 0 <= x2i22 <= 1
 0 <= x2i23 <= 1
 0 <= x2i24 <= 1
 0 <= x2i25 <= 1
 0 <= x2i26 <= 1
 0 <= x2i27 <= 1
 0 <= x2i28 <= 1
 0 <= x2i29 <= 1
 0 <= x2i30 <= 1
 0 <= x2i31 <= 1
 0 <= x2i32 <= 1
 0 <= x2i33 <= 1
 0 <= x2i34 <= 1
 0 <= x3i19 <= 1
 0 <= x3i20 <= 1
 0 <= x3i21 <= 1
 0 <= x3i22 <= 1
 0 <= x3i23 <= 1
 0 <= x3i24 <= 1
 0 <= x3i25 <= 1
 0 <= x3i26 <= 1
 0 <= x3i27 <= 1
 0 <= x3i28 <= 1
 0 <= x3i29 <= 1
 0 <= x3i30 <= 1
 0 <= x3i31 <= 1
 0 <= x3i32 <= 1
 0 <= x3i33 <= 1
 0 <= x3i34 <= 1
 0 <= x4i19 <= 1
 0 <= x4i20 <= 1
 0 <= x4i21 <= 1
 0 <= x4i22 <= 1
 0 <= x4i23 <= 1
 0 <= x4i24 <= 1
 0 <= x4i25 <= 1
 0 <= x4i26 <= 1
 0 <= x4i27 <= 1
 0 <= x4i28 <= 1
 0 <= x4i29 <= 1
 0 <= x4i30 <= 1
 0 <= x4i31 <= 1
 0 <= x4i32 <= 1
 0 <= x4i33 <= 1
 0 <= x4i34 <= 1
 0 <= x5i19 <= 1
 0 <= x5i20 <= 1
 0 <= x5i21 <= 1
 0 <= x5i22 <= 1
 0 <= x5i23 <= 1
 0 <= x5i24 <= 1
 0 <= x5i25 <= 1
 0 <= x5i26 <= 1
 0 <= x5i27 <= 1
 0 <= x5i28 <= 1
 0 <= x5i29 <= 1
 0 <= x5i30 <= 1
 0 <= x5i31 <= 1
 0 <= x5i32 <= 1
 0 <= x5i33 <= 1
 0 <= x5i34 <= 1
 0 <= x6i19 <= 1
 0 <= x6i20 <= 1
 0 <= x6i21 <= 1
 0 <= x6i22 <= 1
 0 <= x6i23 <= 1
 0 <= x6i24 <= 1
 0 <= x6i25 <= 1
 0 <= x6i26 <= 1
 0 <= x6i27 <= 1
 0 <= x6i28 <= 1
 0 <= x6i29 <= 1
 0 <= x6i30 <= 1
 0 <= x6i31 <= 1
 0 <= x6i32 <= 1
 0 <= x6i33 <= 1
 0 <= x6i34 <= 1
 0 <= x7i19 <= 1
 0 <= x7i20 <= 1
 0 <= x7i21 <= 1
 0 <= x7i22 <= 1
 0 <= x7i23 <= 1
 0 <= x7i24 <= 1
 0 <= x7i25 <= 1
 0 <= x7i26 <= 1
 0 <= x7i27 <= 1
 0 <= x7i28 <= 1
 0 <= x7i29 <= 1
 0 <= x7i30 <= 1
 0 <= x7i31 <= 1
 0 <= x7i32 <= 1
 0 <= x7i33 <= 1
 0 <= x7i34 <= 1
 0 <= x8i19 <= 1
 0 <= x8i20 <= 1
 0 <= x8i21 <= 1
 0 <= x8i22 <= 1
 0 <= x8i23 <= 1
 0 <= x8i24 <= 1
 0 <= x8i25 <= 1
 0 <= x8i26 <= 1
 0 <= x8i27 <= 1
 0 <= x8i28 <= 1
 0 <= x8i29 <= 1
 0 <= x8i30 <= 1
 0 <= x8i31 <= 1
 0 <= x8i32 <= 1
 0 <= x8i33 <= 1
 0 <= x8i34 <= 1
 0 <= x9i19 <= 1
 0 <= x9i20 <= 1
 0 <= x9i21 <= 1
 0 <= x9i22 <= 1
 0 <= x9i23 <= 1
 0 <= x9i24 <= 1
 0 <= x9i25 <= 1
 0 <= x9i26 <= 1
 0 <= x9i27 <= 1
 0 <= x9i28 <= 1
 0 <= x9i29 <= 1
 0 <= x9i30 <= 1
 0 <= x9i31 <= 1
 0 <= x9i32 <= 1
 0 <= x9i33 <= 1
 0 <= x9i34 <= 1
 0 <= x10i19 <= 1
 0 <= x10i20 <= 1
 0 <= x10i21 <= 1
 0 <= x10i22 <= 1
 0 <= x10i23 <= 1
 0 <= x10i24 <= 1
 0 <= x10i25 <= 1
 0 <= x10i26 <= 1
 0 <= x10i27 <= 1
 0 <= x10i28 <= 1
 0 <= x10i29 <= 1
 0 <= x10i30 <= 1
 0 <= x10i31 <= 1
 0 <= x10i32 <= 1
 0 <= x10i33 <= 1
 0 <= x10i34 <= 1
 0 <= x11i19 <= 1
 0 <= x11i20 <= 1
 0 <= x11i21 <= 1
 0 <= x11i22 <= 1
 0 <= x11i23 <= 1
 0 <= x11i24 <= 1
 0 <= x11i25 <= 1
 0 <= x11i26 <= 1
 0 <= x11i27 <= 1
 0 <= x11i28 <= 1
 0 <= x11i29 <= 1
 0 <= x11i30 <= 1
 0 <= x11i31 <= 1
 0 <= x11i32 <= 1
 0 <= x11i33 <= 1
 0 <= x11i34 <= 1
 0 <= x12i19 <= 1
 0 <= x12i20 <= 1
 0 <= x12i21 <= 1
 0 <= x12i22 <= 1
 0 <= x12i23 <= 1
 0 <= x12i24 <= 1
 0 <= x12i25 <= 1
 0 <= x12i26 <= 1
 0 <= x12i27 <= 1
 0 <= x12i28 <= 1
 0 <= x12i29 <= 1
 0 <= x12i30 <= 1
 0 <= x12i31 <= 1
 0 <= x12i32 <= 1
 0 <= x12i33 <= 1
 0 <= x12i34 <= 1
 0 <= x13i19 <= 1
 0 <= x13i20 <= 1
 0 <= x13i21 <= 1
 0 <= x13i22 <= 1
 0 <= x13i23 <= 1
 0 <= x13i24 <= 1
 0 <= x13i25 <= 1
 0 <= x13i26 <= 1
 0 <= x13i27 <= 1
 0 <= x13i28 <= 1
 0 <= x13i29 <= 1
 0 <= x13i30 <= 1
 0 <= x13i31 <= 1
 0 <= x13i32 <= 1
 0 <= x13i33 <= 1
 0 <= x13i34 <= 1
 0 <= x14i19 <= 1
 0 <= x14i20 <= 1
 0 <= x14i21 <= 1
 0 <= x14i22 <= 1
 0 <= x14i23 <= 1
 0 <= x14i24 <= 1
 0 <= x14i25 <= 1
 0 <= x14i26 <= 1
 0 <= x14i27 <= 1
 0 <= x14i28 <= 1
 0 <= x14i29 <= 1
 0 <= x14i30 <= 1
 0 <= x14i31 <= 1
 0 <= x14i32 <= 1
 0 <= x14i33 <= 1
 0 <= x14i34 <= 1
 0 <= x15i19 <= 1
 0 <= x15i20 <= 1
 0 <= x15i21 <= 1
 0 <= x15i22 <= 1
 0 <= x15i23 <= 1
 0 <= x15i24 <= 1
 0 <= x15i25 <= 1
 0 <= x15i26 <= 1
 0 <= x15i27 <= 1
 0 <= x15i28 <= 1
 0 <= x15i29 <= 1
 0 <= x15i30 <= 1
 0 <= x15i31 <= 1
 0 <= x15i32 <= 1
 0 <= x15i33 <= 1
 0 <= x15i34 <= 1
 0 <= x16i19 <= 1
 0 <= x16i20 <= 1
 0 <= x16i21 <= 1
 0 <= x16i22 <= 1
 0 <= x16i23 <= 1
 0 <= x16i24 <= 1
 0 <= x16i25 <= 1
 0 <= x16i26 <= 1
 0 <= x16i27 <= 1
 0 <= x16i28 <= 1
 0 <= x16i29 <= 1
 0 <= x16i30 <= 1
 0 <= x16i31 <= 1
 0 <= x16i32 <= 1
 0 <= x16i33 <= 1
 0 <= x16i34 <= 1
 0 <= x17i19 <= 1
 0 <= x17i20 <= 1
 0 <= x17i21 <= 1
 0 <= x17i22 <= 1
 0 <= x17i23 <= 1
 0 <= x17i24 <= 1
 0 <= x17i25 <= 1
 0 <= x17i26 <= 1
 0 <= x17i27 <= 1
 0 <= x17i28 <= 1
 0 <= x17i29 <= 1
 0 <= x17i30 <= 1
 0 <= x17i31 <= 1
 0 <= x17i32 <= 1
 0 <= x17i33 <= 1
 0 <= x17i34 <= 1
 0 <= x18i19 <= 1
 0 <= x18i20 <= 1
 0 <= x18i21 <= 1
 0 <= x18i22 <= 1
 0 <= x18i23 <= 1
 0 <= x18i24 <= 1
 0 <= x18i25 <= 1
 0 <= x18i26 <= 1
 0 <= x18i27 <= 1
 0 <= x18i28 <= 1
 0 <= x18i29 <= 1
 0 <= x18i30 <= 1
 0 <= x18i31 <= 1
 0 <= x18i32 <= 1
 0 <= x18i33 <= 1
 0 <= x18i34 <= 1
 0 <= x19i20 <= 1
 0 <= x19i21 <= 1
 0 <= x19i22 <= 1
 0 <= x19i23 <= 1
 0 <= x19i24 <= 1
 0 <= x19i25 <= 1
 0 <= x19i26 <= 1
 0 <= x19i27 <= 1
 0 <= x19i28 <= 1
 0 <= x19i29 <= 1
 0 <= x19i30 <= 1
 0 <= x19i31 <= 1
 0 <= x19i32 <= 1
 0 <= x19i33 <= 1
 0 <= x19i34 <= 1
 0 <= x20i21 <= 1
 0 <= x20i22 <= 1
 0 <= x20i23 <= 1
 0 <= x20i24 <= 1
 0 <= x20i25 <= 1
 0 <= x20i26 <= 1
 0 <= x20i27 <= 1
 0 <= x20i28 <= 1
 0 <= x20i29 <= 1
 0 <= x20i30 <= 1
 0 <= x20i31 <= 1
 0 <= x20i32 <= 1
 0 <= x20i33 <= 1
 0 <= x20i34 <= 1
 0 <= x21i22 <= 1
 0 <= x21i23 <= 1
 0 <= x21i24 <= 1
 0 <= x21i25 <= 1
 0 <= x21i26 <= 1
 0 <= x21i27 <= 1
 0 <= x21i28 <= 1
 0 <= x21i29 <= 1
 0 <= x21i30 <= 1
 0 <= x21i31 <= 1
 0 <= x21i32 <= 1
 0 <= x21i33 <= 1
 0 <= x21i34 <= 1
 0 <= x22i23 <= 1
 0 <= x22i24 <= 1
 0 <= x22i25 <= 1
 0 <= x22i26 <= 1
 0 <= x22i27 <= 1
 0 <= x22i28 <= 1
 0 <= x22i29 <= 1
 0 <= x22i30 <= 1
 0 <= x22i31 <= 1
 0 <= x22i32 <= 1
 0 <= x22i33 <= 1
 0 <= x22i34 <= 1
 0 <= x23i24 <= 1
 0 <= x23i25 <= 1
 0 <= x23i26 <= 1
 0 <= x23i27 <= 1
 0 <= x23i28 <= 1
 0 <= x23i29 <= 1
 0 <= x23i30 <= 1
 0 <= x23i31 <= 1
 0 <= x23i32 <= 1
 0 <= x23i33 <= 1
 0 <= x23i34 <= 1
 0 <= x24i25 <= 1
 0 <= x24i26 <= 1
 0 <= x24i27 <= 1
 0 <= x24i28 <= 1
 0 <= x24i29 <= 1
 0 <= x24i30 <= 1
 0 <= x24i31 <= 1
 0 <= x24i32 <= 1
 0 <= x24i33 <= 1
 0 <= x24i34 <= 1
 0 <= x25i26 <= 1
 0 <= x25i27 <= 1
 0 <= x25i28 <= 1
 0 <= x25i29 <= 1
 0 <= x25i30 <= 1
 0 <= x25i31 <= 1
 0 <= x25i32 <= 1
 0 <= x25i33 <= 1
 0 <= x25i34 <= 1
 0 <= x26i27 <= 1
 0 <= x26i28 <= 1
 0 <= x26i29 <= 1
 0 <= x26i30 <= 1
 0 <= x26i31 <= 1
 0 <= x26i32 <= 1
 0 <= x26i33 <= 1
 0 <= x26i34 <= 1
 0 <= x27i28 <= 1
 0 <= x27i29 <= 1
 0 <= x27i30 <= 1
 0 <= x27i31 <= 1
 0 <= x27i32 <= 1
 0 <= x27i33 <= 1
 0 <= x27i34 <= 1
 0 <= x28i29 <= 1
 0 <= x28i30 <= 1
 0 <= x28i31 <= 1
 0 <= x28i32 <= 1
 0 <= x28i33 <= 1
 0 <= x28i34 <= 1
 0 <= x29i30 <= 1
 0 <= x29i31 <= 1
 0 <= x29i32 <= 1
 0 <= x29i33 <= 1
 0 <= x29i34 <= 1
 0 <= x30i31 <= 1
 0 <= x30i32 <= 1
 0 <= x30i33 <= 1
 0 <= x30i34 <= 1
 0 <= x31i32 <= 1
 0 <= x31i33 <= 1
 0 <= x31i34 <= 1
 0 <= x32i33 <= 1
 0 <= x32i34 <= 1
 0 <= x33i34 <= 1

Generals
 x1i19
 x1i20
 x1i21
 x1i22
 x1i23
 x1i24
 x1i25
 x1i26
 x1i27
 x1i28
 x1i29
 x1i30
 x1i31
 x1i32
 x1i33
 x1i34
 x2i19
 x2i20
 x2i21
 x2i22
 x2i23
 x2i24
 x2i25
 x2i26
 x2i27
 x2i28
 x2i29
 x2i30
 x2i31
 x2i32
 x2i33
 x2i34
 x3i19
 x3i20
 x3i21
 x3i22
 x3i23
 x3i24
 x3i25
 x3i26
 x3i27
 x3i28
 x3i29
 x3i30
 x3i31
 x3i32
 x3i33
 x3i34
 x4i19
 x4i20
 x4i21
 x4i22
 x4i23
 x4i24
 x4i25
 x4i26
 x4i27
 x4i28
 x4i29
 x4i30
 x4i31
 x4i32
 x4i33
 x4i34
 x5i19
 x5i20
 x5i21
 x5i22
 x5i23
 x5i24
 x5i25
 x5i26
 x5i27
 x5i28
 x5i29
 x5i30
 x5i31
 x5i32
 x5i33
 x5i34
 x6i19
 x6i20
 x6i21
 x6i22
 x6i23
 x6i24
 x6i25
 x6i26
 x6i27
 x6i28
 x6i29
 x6i30
 x6i31
 x6i32
 x6i33
 x6i34
 x7i19
 x7i20
 x7i21
 x7i22
 x7i23
 x7i24
 x7i25
 x7i26
 x7i27
 x7i28
 x7i29
 x7i30
 x7i31
 x7i32
 x7i33
 x7i34
 x8i19
 x8i20
 x8i21
 x8i22
 x8i23
 x8i24
 x8i25
 x8i26
 x8i27
 x8i28
 x8i29
 x8i30
 x8i31
 x8i32
 x8i33
 x8i34
 x9i19
 x9i20
 x9i21
 x9i22
 x9i23
 x9i24
 x9i25
 x9i26
 x9i27
 x9i28
 x9i29
 x9i30
 x9i31
 x9i32
 x9i33
 x9i34
 x10i19
 x10i20
 x10i21
 x10i22
 x10i23
 x10i24
 x10i25
 x10i26
 x10i27
 x10i28
 x10i29
 x10i30
 x10i31
 x10i32
 x10i33
 x10i34
 x11i19
 x11i20
 x11i21
 x11i22
 x11i23
 x11i24
 x11i25
 x11i26
 x11i27
 x11i28
 x11i29
 x11i30
 x11i31
 x11i32
 x11i33
 x11i34
 x12i19
 x12i20
 x12i21
 x12i22
 x12i23
 x12i24
 x12i25
 x12i26
 x12i27
 x12i28
 x12i29
 x12i30
 x12i31
 x12i32
 x12i33
 x12i34
 x13i19
 x13i20
 x13i21
 x13i22
 x13i23
 x13i24
 x13i25
 x13i26
 x13i27
 x13i28
 x13i29
 x13i30
 x13i31
 x13i32
 x13i33
 x13i34
 x14i19
 x14i20
 x14i21
 x14i22
 x14i23
 x14i24
 x14i25
 x14i26
 x14i27
 x14i28
 x14i29
 x14i30
 x14i31
 x14i32
 x14i33
 x14i34
 x15i19
 x15i20
 x15i21
 x15i22
 x15i23
 x15i24
 x15i25
 x15i26
 x15i27
 x15i28
 x15i29
 x15i30
 x15i31
 x15i32
 x15i33
 x15i34
 x16i19
 x16i20
 x16i21
 x16i22
 x16i23
 x16i24
 x16i25
 x16i26
 x16i27
 x16i28
 x16i29
 x16i30
 x16i31
 x16i32
 x16i33
 x16i34
 x17i19
 x17i20
 x17i21
 x17i22
 x17i23
 x17i24
 x17i25
 x17i26
 x17i27
 x17i28
 x17i29
 x17i30
 x17i31
 x17i32
 x17i33
 x17i34
 x18i19
 x18i20
 x18i21
 x18i22
 x18i23
 x18i24
 x18i25
 x18i26
 x18i27
 x18i28
 x18i29
 x18i30
 x18i31
 x18i32
 x18i33
 x18i34
 x19i20
 x19i21
 x19i22
 x19i23
 x19i24
 x19i25
 x19i26
 x19i27
 x19i28
 x19i29
 x19i30
 x19i31
 x19i32
 x19i33
 x19i34
 x20i21
 x20i22
 x20i23
 x20i24
 x20i25
 x20i26
 x20i27
 x20i28
 x20i29
 x20i30
 x20i31
 x20i32
 x20i33
 x20i34
 x21i22
 x21i23
 x21i24
 x21i25
 x21i26
 x21i27
 x21i28
 x21i29
 x21i30
 x21i31
 x21i32
 x21i33
 x21i34
 x22i23
 x22i24
 x22i25
 x22i26
 x22i27
 x22i28
 x22i29
 x22i30
 x22i31
 x22i32
 x22i33
 x22i34
 x23i24
 x23i25
 x23i26
 x23i27
 x23i28
 x23i29
 x23i30
 x23i31
 x23i32
 x23i33
 x23i34
 x24i25
 x24i26
 x24i27
 x24i28
 x24i29
 x24i30
 x24i31
 x24i32
 x24i33
 x24i34
 x25i26
 x25i27
 x25i28
 x25i29
 x25i30
 x25i31
 x25i32
 x25i33
 x25i34
 x26i27
 x26i28
 x26i29
 x26i30
 x26i31
 x26i32
 x26i33
 x26i34
 x27i28
 x27i29
 x27i30
 x27i31
 x27i32
 x27i33
 x27i34
 x28i29
 x28i30
 x28i31
 x28i32
 x28i33
 x28i34
 x29i30
 x29i31
 x29i32
 x29i33
 x29i34
 x30i31
 x30i32
 x30i33
 x30i34
 x31i32
 x31i33
 x31i34
 x32i33
 x32i34
 x33i34

End
